164
0 124 161 33 95 112 14 45 6 158 
71 97 118 41 42 21 151 36 129 39 
147 107 103 87 59 72 85 3 28 61 
106 159 30 135 54 68 155 34 156 51 
1 46 13 16 101 109 144 66 9 150 
29 23 123 82 134 40 148 116 26 162 
94 86 2 62 63 73 27 110 55 99 
139 145 37 10 163 89 64 52 152 83 
22 90 58 69 77 44 96 133 32 15 
75 157 126 79 119 146 121 81 43 137 
38 57 115 160 24 128 78 132 104 19 
92 8 70 11 114 98 111 67 7 12 
130 48 113 136 91 141 49 140 35 74 
149 65 154 60 84 76 47 131 100 127 
143 20 80 4 88 53 25 93 17 5 
108 56 50 153 105 125 102 31 122 138 
142 18 117 120 
